(set-logic QF_S)
(declare-fun var0 () String)
(assert (str.in.re var0 (re.++ (re.union (re.+ (str.to.re "0")) (re.+ (str.to.re "1"))) (re.++ (re.* (re.* (str.to.re "2"))) (re.++ (re.union (re.union (str.to.re "3") (str.to.re "44")) (re.union (str.to.re "555") (str.to.re "66"))) (re.++ (re.* (re.union (str.to.re "77") (str.to.re "88"))) (re.++ (re.+ (re.+ (str.to.re "99"))) (re.++ (re.+ (re.union (str.to.re "a") (str.to.re "bb"))) (re.++ (re.* (re.* (str.to.re "cc"))) (re.++ (re.* (re.union (str.to.re "dd") (str.to.re "ee"))) (re.++ (re.union (re.+ (str.to.re "f")) (re.+ (str.to.re "ggg"))) (re.++ (re.+ (re.union (str.to.re "hhh") (str.to.re "i"))) (re.++ (re.* (re.* (str.to.re "jjj"))) (re.++ (re.+ (re.* (str.to.re "kkk"))) (re.++ (re.* (re.union (str.to.re "ll") (str.to.re "mm"))) (re.++ (re.+ (re.union (str.to.re "nnn") (str.to.re "ooo"))) (re.++ (re.union (re.* (str.to.re "ppp")) (re.* (str.to.re "q"))) (re.++ (re.union (re.union (str.to.re "rr") (str.to.re "ss")) (re.union (str.to.re "tt") (str.to.re "uu"))) (re.++ (re.union (re.* (str.to.re "vv")) (re.* (str.to.re "www"))) (re.++ (re.+ (re.union (str.to.re "x") (str.to.re "yyy"))) (re.++ (re.* (re.union (str.to.re "z") (str.to.re "AAA"))) (re.++ (re.* (re.+ (str.to.re "B"))) (re.++ (re.union (re.* (str.to.re "C")) (re.* (str.to.re "D"))) (re.++ (re.union (re.+ (str.to.re "EEE")) (re.+ (str.to.re "FF"))) (re.++ (re.* (re.+ (str.to.re "G"))) (re.++ (re.* (re.union (str.to.re "HH") (str.to.re "II"))) (re.++ (re.+ (re.* (str.to.re "J"))) (re.++ (re.union (re.* (str.to.re "KK")) (re.* (str.to.re "LLL"))) (re.++ (re.union (re.* (str.to.re "MM")) (re.* (str.to.re "N"))) (re.++ (re.+ (re.* (str.to.re "OOO"))) (re.++ (re.+ (re.union (str.to.re "PPP") (str.to.re "QQQ"))) (re.++ (re.union (re.* (str.to.re "RRR")) (re.* (str.to.re "S"))) (re.++ (re.union (re.* (str.to.re "TTT")) (re.* (str.to.re "U"))) (re.++ (re.+ (re.* (str.to.re "V"))) (re.++ (re.union (re.* (str.to.re "WWW")) (re.* (str.to.re "XX"))) (re.++ (re.+ (re.+ (str.to.re "Y"))) (re.++ (re.+ (re.union (str.to.re "ZZ") (str.to.re "!"))) (re.++ (re.+ (re.union (str.to.re """""") (str.to.re "###"))) (re.++ (re.* (re.+ (str.to.re "$$"))) (re.++ (re.* (re.* (str.to.re "%%"))) (re.++ (re.union (re.+ (str.to.re "&")) (re.+ (str.to.re "'"))) (re.++ (re.* (re.union (str.to.re "(((") (str.to.re "))"))) (re.++ (re.+ (re.* (str.to.re "*"))) (re.++ (re.+ (re.* (str.to.re "+++"))) (re.++ (re.union (re.union (str.to.re ",,,") (str.to.re "--")) (re.union (str.to.re "..") (str.to.re "///"))) (re.++ (re.union (re.* (str.to.re ":::")) (re.* (str.to.re ";;;"))) (re.++ (re.* (re.+ (str.to.re "<<"))) (re.++ (re.union (re.union (str.to.re "==") (str.to.re ">")) (re.union (str.to.re "?") (str.to.re "@"))) (re.++ (re.* (re.* (str.to.re "[["))) (re.++ (re.+ (re.union (str.to.re "\\\\") (str.to.re "]]"))) (re.++ (re.+ (re.union (str.to.re "^") (str.to.re "___"))) (re.+ (re.* (str.to.re "``"))))))))))))))))))))))))))))))))))))))))))))))))))))))
(check-sat)